NAME : Euclidean Random Tour : n = 100, sample = 25 
COMMENT : Coordinates are generated uniformly sampled from [0, 100000] x [0, 100000] 
DIMENSION : 100 
EDGE_WEIGHT_TYPE : EUC_2D 
TOUR_SECTION 
1
76
61
91
12
83
73
97
38
71
75
51
33
32
35
5
87
62
52
78
98
99
56
50
89
64
34
8
13
43
96
59
31
9
2
60
45
94
24
42
41
48
63
68
82
84
77
88
18
70
4
16
37
80
55
92
66
17
79
100
39
26
25
6
40
21
86
10
11
3
72
58
74
29
27
69
7
67
49
93
22
47
95
90
57
15
53
19
30
28
81
23
65
85
14
44
46
36
20
54
-1
